\Problem name: noname                                                           
\FICO Xpress v8.9.2, Community, written 17:07:50, Jun 10, 2020

Minimize
 17 - 8 C1 - 2 C2 + [ 2 C1^2 + 2 C2^2 ] / 2

Subject To
R1: C1 + C2 >= 2 
R2: 2 C1 + C2 <= 3 

Bounds

End
